2291743
53,22,48,18,59,6,10,63,5,28,60,31,39,4,55,2,23,20,24,29,40,37,66,33,65,25,54,45,42,32,56,17,9,51,13,43,67,7,57,8,58,62,21,30,27,49,35,50,38,34,61,36,52,14,15,47,19,64,12,46,3,44,16,26,1,41,11,0
